<instance format="XCSP3" type="CSP">
  <variables>
    <var id="x0"> 0 6 9 </var>
    <var id="x1"> 6 8 9 </var>
    <var id="x2"> 0 3 9 12 </var>
    <var id="x3"> 3 4 6 </var>
    <var id="x4"> 3 8 9 </var>
    <var id="x5"> 0 4 6 8 </var>
    <var id="x6"> 0 3 4 12 </var>
    <var id="x7"> 0 6 9 13 </var>
    <var id="x8"> 0 1 3 9 10 </var>
    <var id="x9"> 3 6 10 </var>
    <var id="x10"> 1 3 6 10 </var>
    <var id="x11"> 1 3 9 10 </var>
    <var id="x12"> 0 6 </var>
    <var id="x13"> 0 1 9 13 </var>
    <var id="x14"> 0 4 7 8 </var>
    <var id="x15"> 4 9 11 </var>
    <var id="x16"> 5 7..9 11 </var>
    <var id="x17"> 7 10 </var>
    <var id="x18"> 0 4 5 7 8 </var>
    <var id="x19"> 0 4 5 9 11 </var>
    <var id="x20"> 0 4 5 7 10 11 </var>
    <var id="x21"> 0 4 5 10 </var>
    <var id="x22"> 0 3 14 </var>
    <var id="x23"> 1 13 14 </var>
    <var id="x24"> 1 13 </var>
    <var id="x25"> 0 1 3 5 10 </var>
    <var id="x26"> 3 10 14 </var>
    <var id="x27"> 1 3 10 14 </var>
    <var id="x28"> 1 3 5 10 </var>
    <var id="x29"> 2 8 9 11 </var>
    <var id="x30"> 2 9 10 </var>
    <var id="x31"> 9 10 </var>
    <var id="x32"> 2 4 7 10 </var>
    <var id="x33"> 2 4 7 8 </var>
    <var id="x34"> 2 4 7 8 </var>
    <var id="x35"> 4 7 10 11 </var>
    <var id="x36"> 0 6 7 </var>
    <var id="x37"> 0..2 9 </var>
    <var id="x38"> 1 5 7 9 </var>
    <var id="x39"> 1 2 6 7 </var>
    <var id="x40"> 1 5 7 9 </var>
    <var id="x41"> 0 1 5 7 </var>
    <var id="x42"> 0 5 </var>
    <var id="x43"> 2 </var>
    <var id="x44"> 0 3 5 10 </var>
    <var id="x45"> 0 2 3 5 8 </var>
    <var id="x46"> 3 5 8 </var>
    <var id="x47"> 2 3 6 10 </var>
    <var id="x48"> 0 5 </var>
    <var id="x49"> 0 3 5 10 </var>
    <var id="x50"> 3 6 14 </var>
    <var id="x51"> 5 6 13 </var>
    <var id="x52"> 1 11 13 14 </var>
    <var id="x53"> 1 3 14 </var>
    <var id="x54"> 1 3 5 11 </var>
    <var id="x55"> 5 6 </var>
    <var id="x56"> 1 5 11 13 </var>
    <var id="x57"> 4 7 14 </var>
    <var id="x58"> 1 2 </var>
    <var id="x59"> 1 5 12 </var>
    <var id="x60"> 2 4 5 7 </var>
    <var id="x61"> 2 4 5 7 </var>
    <var id="x62"> 1 4 5 </var>
    <var id="x63"> 4 5 12 14 </var>
    <var id="x64"> 0 3 7 14 </var>
    <var id="x65"> 0 2 7 13 </var>
    <var id="x66"> 1 2 13 14 </var>
    <var id="x67"> 1 2 13 </var>
    <var id="x68"> 2 3 7 14 </var>
    <var id="x69"> 0 2 3 7 </var>
    <var id="x70"> 1..3 7 14 </var>
    <var id="x71"> 5 7 9 </var>
    <var id="x72"> 4 9 </var>
    <var id="x73"> 3 9 10 12 </var>
    <var id="x74"> 3 4 7 10 </var>
    <var id="x75"> 3 7 10 </var>
    <var id="x76"> 3 5 7 9 10 </var>
    <var id="x77"> 4 5 7 10 </var>
    <var id="x78"> 0 2 7 9 </var>
    <var id="x79"> 0 1 9 </var>
    <var id="x80"> 0 2 4 7 </var>
    <var id="x81"> 1 7 9 </var>
    <var id="x82"> 0 2 4 7 </var>
    <var id="x83"> 0 1 4 7 </var>
    <var id="x84"> 0 4 14 </var>
    <var id="x85"> 0 4 8 </var>
    <var id="x86"> 0..2 9 </var>
    <var id="x87"> 0 1 9 </var>
    <var id="x88"> 0 2 4 8 </var>
    <var id="x89"> 1 8 9 11 </var>
    <var id="x90"> 0 1 4 9 11 </var>
    <var id="x91"> 0 1 4 11 </var>
    <var id="x92"> 2 5..7 </var>
    <var id="x93"> 1 2 6 </var>
    <var id="x94"> 1..3 10 </var>
    <var id="x95"> 1 3 5 7 </var>
    <var id="x96"> 1 3 5 7 10 </var>
    <var id="x97"> 1 5 </var>
    <var id="x98"> 3 5 10 </var>
    <var id="x99"> 4 11 14 </var>
    <var id="x100"> 8 11 </var>
    <var id="x101"> 3 14 </var>
    <var id="x102"> 3 4 7 14 </var>
    <var id="x103"> 3..5 7 8 </var>
    <var id="x104"> 3 5 7 8 </var>
    <var id="x105"> 4 5 7 11 </var>
  </variables>
  <constraints>
    <group>
      <allDifferent> %... </allDifferent>
      <args> x0 x1 x2 x3 x4 x5 x6 </args>
      <args> x7 x8 x9 x10 x11 x12 x13 </args>
      <args> x14 x15 x16 x17 x18 x19 x20 x21 </args>
      <args> x22 x23 x24 x25 x26 x27 x28 </args>
      <args> x29 x30 x31 x32 x33 x34 x35 </args>
      <args> x36 x37 x38 x39 x40 x41 x42 </args>
      <args> x43 x44 x45 x46 x47 x48 x49 </args>
      <args> x50 x51 x52 x53 x54 x55 x56 </args>
      <args> x57 x58 x59 x60 x61 x62 x63 </args>
      <args> x64 x65 x66 x67 x68 x69 x70 </args>
      <args> x71 x72 x73 x74 x75 x76 x77 </args>
      <args> x78 x79 x80 x81 x82 x83 x84 </args>
      <args> x85 x86 x87 x88 x89 x90 x91 </args>
      <args> x92 x93 x94 x95 x96 x97 x98 </args>
      <args> x99 x100 x101 x102 x103 x104 x105 </args>
      <args> x14 x22 x36 x50 x57 x64 x85 </args>
      <args> x0 x7 x51 x65 x71 x78 x92 </args>
      <args> x15 x23 x43 x52 x66 x72 x99 </args>
      <args> x1 x24 x29 x58 x67 x93 x100 </args>
      <args> x2 x30 x37 x53 x73 x86 x94 x101 </args>
      <args> x8 x25 x31 x44 x59 x79 x87 </args>
      <args> x3 x9 x26 x32 x68 x74 x102 </args>
      <args> x33 x45 x60 x69 x80 x88 x103 </args>
      <args> x16 x38 x46 x54 x81 x89 x95 </args>
      <args> x10 x17 x27 x39 x47 x70 x75 </args>
      <args> x4 x11 x28 x40 x76 x96 x104 </args>
      <args> x5 x12 x18 x34 x55 x61 x82 </args>
      <args> x13 x19 x48 x56 x62 x90 x97 </args>
      <args> x20 x35 x41 x77 x83 x91 x105 </args>
      <args> x6 x21 x42 x49 x63 x84 x98 </args>
    </group>
  </constraints>
</instance>

